p cnf 1989
-24 -626
-25 -629
-26 -632
-27 -635
-28 -638
-29 -641
-30 -644
-31 -647
-32 -650
-33 -653
-34 -656
-35 -659
-36 -662
-37 -665
-38 -668
-39 -671
-40 -674
-41 -677
-42 -680
-43 -683
-44 -686
-45 -689
-46 -692
-47 693
-48 694
-49 695
-50 696
-51 697
-52 698
-53 699
-54 700
-55 701
-56 702
-57 703
-58 704
-59 705
-60 706
-61 707
-62 708
-63 709
-64 710
-65 711
-66 712
-67 713
-68 -25
-68 -26
25 26 68
-69 -27
-69 -28
27 28 69
-70 -29
-70 -30
29 30 70
-71 -31
-71 -32
31 32 71
-72 -33
-72 -34
33 34 72
-73 -35
-73 -36
35 36 73
-74 -37
-74 -38
37 38 74
-75 -39
-75 -40
39 40 75
-76 -41
-76 -42
41 42 76
-77 -43
-77 -44
43 44 77
-78 -45
-78 -46
45 46 78
-79 -47
-79 -48
47 48 79
-80 -49
-80 -50
49 50 80
-81 -51
-81 -52
51 52 81
-82 -53
-82 -54
53 54 82
-83 -55
-83 -56
55 56 83
-84 -57
-84 -58
57 58 84
-85 -59
-85 -60
59 60 85
-86 -61
-86 -62
61 62 86
-87 -63
-87 -64
63 64 87
-88 -65
-88 -66
65 66 88
-89 68
-89 69
-68 -69 89
-90 70
-90 71
-70 -71 90
-91 72
-91 73
-72 -73 91
-92 74
-92 75
-74 -75 92
-93 76
-93 77
-76 -77 93
-94 78
-94 79
-78 -79 94
-95 80
-95 81
-80 -81 95
-96 82
-96 83
-82 -83 96
-97 84
-97 85
-84 -85 97
-98 86
-98 87
-86 -87 98
-99 -67
-99 88
67 -88 99
-100 89
-100 90
-89 -90 100
-101 91
-101 92
-91 -92 101
-102 93
-102 94
-93 -94 102
-103 95
-103 96
-95 -96 103
-104 97
-104 98
-97 -98 104
-105 100
-105 101
-100 -101 105
-106 102
-106 103
-102 -103 106
-107 99
-107 104
-99 -104 107
-108 105
-108 106
-105 -106 108
-109 107
-109 108
-107 -108 109
-110 -24
-110 25
24 -25 110
-111 24
-111 -25
-24 25 111
-112 -110
-112 -111
110 111 112
-113 24
-113 25
-24 -25 113
-114 -24
-114 -112
24 112 114
-115 24
-115 112
-24 -112 115
-116 -114
-116 -115
114 115 116
-117 24
-117 -112
-24 112 117
-118 -113
-118 -117
113 117 118
-119 -25
-119 26
25 -26 119
-120 25
-120 -26
-25 26 120
-121 -119
-121 -120
119 120 121
-122 25
-122 26
-25 -26 122
-123 118
-123 -121
-118 121 123
-124 -118
-124 121
118 -121 124
-125 -123
-125 -124
123 124 125
-126 -118
-126 -121
118 121 126
-127 -122
-127 -126
122 126 127
-128 -26
-128 27
26 -27 128
-129 26
-129 -27
-26 27 129
-130 -128
-130 -129
128 129 130
-131 26
-131 27
-26 -27 131
-132 127
-132 -130
-127 130 132
-133 -127
-133 130
127 -130 133
-134 -132
-134 -133
132 133 134
-135 -127
-135 -130
127 130 135
-136 -131
-136 -135
131 135 136
-137 -27
-137 28
27 -28 137
-138 27
-138 -28
-27 28 138
-139 -137
-139 -138
137 138 139
-140 27
-140 28
-27 -28 140
-141 136
-141 -139
-136 139 141
-142 -136
-142 139
136 -139 142
-143 -141
-143 -142
141 142 143
-144 -136
-144 -139
136 139 144
-145 -140
-145 -144
140 144 145
-146 -28
-146 29
28 -29 146
-147 28
-147 -29
-28 29 147
-148 -146
-148 -147
146 147 148
-149 28
-149 29
-28 -29 149
-150 145
-150 -148
-145 148 150
-151 -145
-151 148
145 -148 151
-152 -150
-152 -151
150 151 152
-153 -145
-153 -148
145 148 153
-154 -149
-154 -153
149 153 154
-155 -29
-155 30
29 -30 155
-156 29
-156 -30
-29 30 156
-157 -155
-157 -156
155 156 157
-158 29
-158 30
-29 -30 158
-159 154
-159 -157
-154 157 159
-160 -154
-160 157
154 -157 160
-161 -159
-161 -160
159 160 161
-162 -154
-162 -157
154 157 162
-163 -158
-163 -162
158 162 163
-164 -30
-164 31
30 -31 164
-165 30
-165 -31
-30 31 165
-166 -164
-166 -165
164 165 166
-167 30
-167 31
-30 -31 167
-168 163
-168 -166
-163 166 168
-169 -163
-169 166
163 -166 169
-170 -168
-170 -169
168 169 170
-171 -163
-171 -166
163 166 171
-172 -167
-172 -171
167 171 172
-173 -31
-173 32
31 -32 173
-174 31
-174 -32
-31 32 174
-175 -173
-175 -174
173 174 175
-176 31
-176 32
-31 -32 176
-177 172
-177 -175
-172 175 177
-178 -172
-178 175
172 -175 178
-179 -177
-179 -178
177 178 179
-180 -172
-180 -175
172 175 180
-181 -176
-181 -180
176 180 181
-182 -32
-182 33
32 -33 182
-183 32
-183 -33
-32 33 183
-184 -182
-184 -183
182 183 184
-185 32
-185 33
-32 -33 185
-186 181
-186 -184
-181 184 186
-187 -181
-187 184
181 -184 187
-188 -186
-188 -187
186 187 188
-189 -181
-189 -184
181 184 189
-190 -185
-190 -189
185 189 190
-191 -33
-191 34
33 -34 191
-192 33
-192 -34
-33 34 192
-193 -191
-193 -192
191 192 193
-194 33
-194 34
-33 -34 194
-195 190
-195 -193
-190 193 195
-196 -190
-196 193
190 -193 196
-197 -195
-197 -196
195 196 197
-198 -190
-198 -193
190 193 198
-199 -194
-199 -198
194 198 199
-200 -34
-200 35
34 -35 200
-201 34
-201 -35
-34 35 201
-202 -200
-202 -201
200 201 202
-203 34
-203 35
-34 -35 203
-204 199
-204 -202
-199 202 204
-205 -199
-205 202
199 -202 205
-206 -204
-206 -205
204 205 206
-207 -199
-207 -202
199 202 207
-208 -203
-208 -207
203 207 208
-209 -35
-209 36
35 -36 209
-210 35
-210 -36
-35 36 210
-211 -209
-211 -210
209 210 211
-212 35
-212 36
-35 -36 212
-213 208
-213 -211
-208 211 213
-214 -208
-214 211
208 -211 214
-215 -213
-215 -214
213 214 215
-216 -208
-216 -211
208 211 216
-217 -212
-217 -216
212 216 217
-218 -36
-218 37
36 -37 218
-219 36
-219 -37
-36 37 219
-220 -218
-220 -219
218 219 220
-221 36
-221 37
-36 -37 221
-222 217
-222 -220
-217 220 222
-223 -217
-223 220
217 -220 223
-224 -222
-224 -223
222 223 224
-225 -217
-225 -220
217 220 225
-226 -221
-226 -225
221 225 226
-227 -37
-227 38
37 -38 227
-228 37
-228 -38
-37 38 228
-229 -227
-229 -228
227 228 229
-230 37
-230 38
-37 -38 230
-231 226
-231 -229
-226 229 231
-232 -226
-232 229
226 -229 232
-233 -231
-233 -232
231 232 233
-234 -226
-234 -229
226 229 234
-235 -230
-235 -234
230 234 235
-236 -38
-236 39
38 -39 236
-237 38
-237 -39
-38 39 237
-238 -236
-238 -237
236 237 238
-239 38
-239 39
-38 -39 239
-240 235
-240 -238
-235 238 240
-241 -235
-241 238
235 -238 241
-242 -240
-242 -241
240 241 242
-243 -235
-243 -238
235 238 243
-244 -239
-244 -243
239 243 244
-245 -39
-245 40
39 -40 245
-246 39
-246 -40
-39 40 246
-247 -245
-247 -246
245 246 247
-248 39
-248 40
-39 -40 248
-249 244
-249 -247
-244 247 249
-250 -244
-250 247
244 -247 250
-251 -249
-251 -250
249 250 251
-252 -244
-252 -247
244 247 252
-253 -248
-253 -252
248 252 253
-254 -40
-254 41
40 -41 254
-255 40
-255 -41
-40 41 255
-256 -254
-256 -255
254 255 256
-257 40
-257 41
-40 -41 257
-258 253
-258 -256
-253 256 258
-259 -253
-259 256
253 -256 259
-260 -258
-260 -259
258 259 260
-261 -253
-261 -256
253 256 261
-262 -257
-262 -261
257 261 262
-263 -41
-263 42
41 -42 263
-264 41
-264 -42
-41 42 264
-265 -263
-265 -264
263 264 265
-266 41
-266 42
-41 -42 266
-267 262
-267 -265
-262 265 267
-268 -262
-268 265
262 -265 268
-269 -267
-269 -268
267 268 269
-270 -262
-270 -265
262 265 270
-271 -266
-271 -270
266 270 271
-272 -42
-272 43
42 -43 272
-273 42
-273 -43
-42 43 273
-274 -272
-274 -273
272 273 274
-275 42
-275 43
-42 -43 275
-276 271
-276 -274
-271 274 276
-277 -271
-277 274
271 -274 277
-278 -276
-278 -277
276 277 278
-279 -271
-279 -274
271 274 279
-280 -275
-280 -279
275 279 280
-281 -43
-281 44
43 -44 281
-282 43
-282 -44
-43 44 282
-283 -281
-283 -282
281 282 283
-284 43
-284 44
-43 -44 284
-285 280
-285 -283
-280 283 285
-286 -280
-286 283
280 -283 286
-287 -285
-287 -286
285 286 287
-288 -280
-288 -283
280 283 288
-289 -284
-289 -288
284 288 289
-290 -44
-290 45
44 -45 290
-291 44
-291 -45
-44 45 291
-292 -290
-292 -291
290 291 292
-293 44
-293 45
-44 -45 293
-294 289
-294 -292
-289 292 294
-295 -289
-295 292
289 -292 295
-296 -294
-296 -295
294 295 296
-297 -289
-297 -292
289 292 297
-298 -293
-298 -297
293 297 298
-299 -45
-299 46
45 -46 299
-300 45
-300 -46
-45 46 300
-301 -299
-301 -300
299 300 301
-302 45
-302 46
-45 -46 302
-303 298
-303 -301
-298 301 303
-304 -298
-304 301
298 -301 304
-305 -303
-305 -304
303 304 305
-306 -298
-306 -301
298 301 306
-307 -302
-307 -306
302 306 307
-308 -46
-308 47
46 -47 308
-309 46
-309 -47
-46 47 309
-310 -308
-310 -309
308 309 310
-311 46
-311 47
-46 -47 311
-312 307
-312 -310
-307 310 312
-313 -307
-313 310
307 -310 313
-314 -312
-314 -313
312 313 314
-315 -307
-315 -310
307 310 315
-316 -311
-316 -315
311 315 316
-317 -47
-317 48
47 -48 317
-318 47
-318 -48
-47 48 318
-319 -317
-319 -318
317 318 319
-320 47
-320 48
-47 -48 320
-321 316
-321 -319
-316 319 321
-322 -316
-322 319
316 -319 322
-323 -321
-323 -322
321 322 323
-324 -316
-324 -319
316 319 324
-325 -320
-325 -324
320 324 325
-326 -48
-326 49
48 -49 326
-327 48
-327 -49
-48 49 327
-328 -326
-328 -327
326 327 328
-329 48
-329 49
-48 -49 329
-330 325
-330 -328
-325 328 330
-331 -325
-331 328
325 -328 331
-332 -330
-332 -331
330 331 332
-333 -325
-333 -328
325 328 333
-334 -329
-334 -333
329 333 334
-335 -49
-335 50
49 -50 335
-336 49
-336 -50
-49 50 336
-337 -335
-337 -336
335 336 337
-338 49
-338 50
-49 -50 338
-339 334
-339 -337
-334 337 339
-340 -334
-340 337
334 -337 340
-341 -339
-341 -340
339 340 341
-342 -334
-342 -337
334 337 342
-343 -338
-343 -342
338 342 343
-344 -50
-344 51
50 -51 344
-345 50
-345 -51
-50 51 345
-346 -344
-346 -345
344 345 346
-347 50
-347 51
-50 -51 347
-348 343
-348 -346
-343 346 348
-349 -343
-349 346
343 -346 349
-350 -348
-350 -349
348 349 350
-351 -343
-351 -346
343 346 351
-352 -347
-352 -351
347 351 352
-353 -51
-353 52
51 -52 353
-354 51
-354 -52
-51 52 354
-355 -353
-355 -354
353 354 355
-356 51
-356 52
-51 -52 356
-357 352
-357 -355
-352 355 357
-358 -352
-358 355
352 -355 358
-359 -357
-359 -358
357 358 359
-360 -352
-360 -355
352 355 360
-361 -356
-361 -360
356 360 361
-362 -52
-362 53
52 -53 362
-363 52
-363 -53
-52 53 363
-364 -362
-364 -363
362 363 364
-365 52
-365 53
-52 -53 365
-366 361
-366 -364
-361 364 366
-367 -361
-367 364
361 -364 367
-368 -366
-368 -367
366 367 368
-369 -361
-369 -364
361 364 369
-370 -365
-370 -369
365 369 370
-371 -53
-371 54
53 -54 371
-372 53
-372 -54
-53 54 372
-373 -371
-373 -372
371 372 373
-374 53
-374 54
-53 -54 374
-375 370
-375 -373
-370 373 375
-376 -370
-376 373
370 -373 376
-377 -375
-377 -376
375 376 377
-378 -370
-378 -373
370 373 378
-379 -374
-379 -378
374 378 379
-380 -54
-380 55
54 -55 380
-381 54
-381 -55
-54 55 381
-382 -380
-382 -381
380 381 382
-383 54
-383 55
-54 -55 383
-384 379
-384 -382
-379 382 384
-385 -379
-385 382
379 -382 385
-386 -384
-386 -385
384 385 386
-387 -379
-387 -382
379 382 387
-388 -383
-388 -387
383 387 388
-389 -55
-389 56
55 -56 389
-390 55
-390 -56
-55 56 390
-391 -389
-391 -390
389 390 391
-392 55
-392 56
-55 -56 392
-393 388
-393 -391
-388 391 393
-394 -388
-394 391
388 -391 394
-395 -393
-395 -394
393 394 395
-396 -388
-396 -391
388 391 396
-397 -392
-397 -396
392 396 397
-398 -56
-398 57
56 -57 398
-399 56
-399 -57
-56 57 399
-400 -398
-400 -399
398 399 400
-401 56
-401 57
-56 -57 401
-402 397
-402 -400
-397 400 402
-403 -397
-403 400
397 -400 403
-404 -402
-404 -403
402 403 404
-405 -397
-405 -400
397 400 405
-406 -401
-406 -405
401 405 406
-407 -57
-407 58
57 -58 407
-408 57
-408 -58
-57 58 408
-409 -407
-409 -408
407 408 409
-410 57
-410 58
-57 -58 410
-411 406
-411 -409
-406 409 411
-412 -406
-412 409
406 -409 412
-413 -411
-413 -412
411 412 413
-414 -406
-414 -409
406 409 414
-415 -410
-415 -414
410 414 415
-416 -58
-416 59
58 -59 416
-417 58
-417 -59
-58 59 417
-418 -416
-418 -417
416 417 418
-419 58
-419 59
-58 -59 419
-420 415
-420 -418
-415 418 420
-421 -415
-421 418
415 -418 421
-422 -420
-422 -421
420 421 422
-423 -415
-423 -418
415 418 423
-424 -419
-424 -423
419 423 424
-425 -59
-425 60
59 -60 425
-426 59
-426 -60
-59 60 426
-427 -425
-427 -426
425 426 427
-428 59
-428 60
-59 -60 428
-429 424
-429 -427
-424 427 429
-430 -424
-430 427
424 -427 430
-431 -429
-431 -430
429 430 431
-432 -424
-432 -427
424 427 432
-433 -428
-433 -432
428 432 433
-434 -60
-434 61
60 -61 434
-435 60
-435 -61
-60 61 435
-436 -434
-436 -435
434 435 436
-437 60
-437 61
-60 -61 437
-438 433
-438 -436
-433 436 438
-439 -433
-439 436
433 -436 439
-440 -438
-440 -439
438 439 440
-441 -433
-441 -436
433 436 441
-442 -437
-442 -441
437 441 442
-443 -61
-443 62
61 -62 443
-444 61
-444 -62
-61 62 444
-445 -443
-445 -444
443 444 445
-446 61
-446 62
-61 -62 446
-447 442
-447 -445
-442 445 447
-448 -442
-448 445
442 -445 448
-449 -447
-449 -448
447 448 449
-450 -442
-450 -445
442 445 450
-451 -446
-451 -450
446 450 451
-452 -62
-452 63
62 -63 452
-453 62
-453 -63
-62 63 453
-454 -452
-454 -453
452 453 454
-455 62
-455 63
-62 -63 455
-456 451
-456 -454
-451 454 456
-457 -451
-457 454
451 -454 457
-458 -456
-458 -457
456 457 458
-459 -451
-459 -454
451 454 459
-460 -455
-460 -459
455 459 460
-461 -63
-461 64
63 -64 461
-462 63
-462 -64
-63 64 462
-463 -461
-463 -462
461 462 463
-464 63
-464 64
-63 -64 464
-465 460
-465 -463
-460 463 465
-466 -460
-466 463
460 -463 466
-467 -465
-467 -466
465 466 467
-468 -460
-468 -463
460 463 468
-469 -464
-469 -468
464 468 469
-470 -64
-470 65
64 -65 470
-471 64
-471 -65
-64 65 471
-472 -470
-472 -471
470 471 472
-473 64
-473 65
-64 -65 473
-474 469
-474 -472
-469 472 474
-475 -469
-475 472
469 -472 475
-476 -474
-476 -475
474 475 476
-477 -469
-477 -472
469 472 477
-478 -473
-478 -477
473 477 478
-479 -65
-479 66
65 -66 479
-480 65
-480 -66
-65 66 480
-481 -479
-481 -480
479 480 481
-482 65
-482 66
-65 -66 482
-483 478
-483 -481
-478 481 483
-484 -478
-484 481
478 -481 484
-485 -483
-485 -484
483 484 485
-486 -478
-486 -481
478 481 486
-487 -482
-487 -486
482 486 487
-488 -66
-488 67
66 -67 488
-489 66
-489 -67
-66 67 489
-490 -488
-490 -489
488 489 490
-491 66
-491 67
-66 -67 491
-492 487
-492 -490
-487 490 492
-493 -487
-493 490
487 -490 493
-494 -492
-494 -493
492 493 494
-495 -487
-495 -490
487 490 495
-496 -491
-496 -495
491 495 496
-497 24
-497 -116
-24 116 497
-498 -24
-498 26
24 -26 498
-499 -497
-499 -498
497 498 499
-500 24
-500 -125
-24 125 500
-501 -24
-501 27
24 -27 501
-502 -500
-502 -501
500 501 502
-503 24
-503 -134
-24 134 503
-504 -24
-504 28
24 -28 504
-505 -503
-505 -504
503 504 505
-506 24
-506 -143
-24 143 506
-507 -24
-507 29
24 -29 507
-508 -506
-508 -507
506 507 508
-509 24
-509 -152
-24 152 509
-510 -24
-510 30
24 -30 510
-511 -509
-511 -510
509 510 511
-512 24
-512 -161
-24 161 512
-513 -24
-513 31
24 -31 513
-514 -512
-514 -513
512 513 514
-515 24
-515 -170
-24 170 515
-516 -24
-516 32
24 -32 516
-517 -515
-517 -516
515 516 517
-518 24
-518 -179
-24 179 518
-519 -24
-519 33
24 -33 519
-520 -518
-520 -519
518 519 520
-521 24
-521 -188
-24 188 521
-522 -24
-522 34
24 -34 522
-523 -521
-523 -522
521 522 523
-524 24
-524 -197
-24 197 524
-525 -24
-525 35
24 -35 525
-526 -524
-526 -525
524 525 526
-527 24
-527 -206
-24 206 527
-528 -24
-528 36
24 -36 528
-529 -527
-529 -528
527 528 529
-530 24
-530 -215
-24 215 530
-531 -24
-531 37
24 -37 531
-532 -530
-532 -531
530 531 532
-533 24
-533 -224
-24 224 533
-534 -24
-534 38
24 -38 534
-535 -533
-535 -534
533 534 535
-536 24
-536 -233
-24 233 536
-537 -24
-537 39
24 -39 537
-538 -536
-538 -537
536 537 538
-539 24
-539 -242
-24 242 539
-540 -24
-540 40
24 -40 540
-541 -539
-541 -540
539 540 541
-542 24
-542 -251
-24 251 542
-543 -24
-543 41
24 -41 543
-544 -542
-544 -543
542 543 544
-545 24
-545 -260
-24 260 545
-546 -24
-546 42
24 -42 546
-547 -545
-547 -546
545 546 547
-548 24
-548 -269
-24 269 548
-549 -24
-549 43
24 -43 549
-550 -548
-550 -549
548 549 550
-551 24
-551 -278
-24 278 551
-552 -24
-552 44
24 -44 552
-553 -551
-553 -552
551 552 553
-554 24
-554 -287
-24 287 554
-555 -24
-555 45
24 -45 555
-556 -554
-556 -555
554 555 556
-557 24
-557 -296
-24 296 557
-558 -24
-558 46
24 -46 558
-559 -557
-559 -558
557 558 559
-560 24
-560 -305
-24 305 560
-561 -24
-561 47
24 -47 561
-562 -560
-562 -561
560 561 562
-563 24
-563 -314
-24 314 563
-564 -24
-564 48
24 -48 564
-565 -563
-565 -564
563 564 565
-566 24
-566 -323
-24 323 566
-567 -24
-567 49
24 -49 567
-568 -566
-568 -567
566 567 568
-569 24
-569 -332
-24 332 569
-570 -24
-570 50
24 -50 570
-571 -569
-571 -570
569 570 571
-572 24
-572 -341
-24 341 572
-573 -24
-573 51
24 -51 573
-574 -572
-574 -573
572 573 574
-575 24
-575 -350
-24 350 575
-576 -24
-576 52
24 -52 576
-577 -575
-577 -576
575 576 577
-578 24
-578 -359
-24 359 578
-579 -24
-579 53
24 -53 579
-580 -578
-580 -579
578 579 580
-581 24
-581 -368
-24 368 581
-582 -24
-582 54
24 -54 582
-583 -581
-583 -582
581 582 583
-584 24
-584 -377
-24 377 584
-585 -24
-585 55
24 -55 585
-586 -584
-586 -585
584 585 586
-587 24
-587 -386
-24 386 587
-588 -24
-588 56
24 -56 588
-589 -587
-589 -588
587 588 589
-590 24
-590 -395
-24 395 590
-591 -24
-591 57
24 -57 591
-592 -590
-592 -591
590 591 592
-593 24
-593 -404
-24 404 593
-594 -24
-594 58
24 -58 594
-595 -593
-595 -594
593 594 595
-596 24
-596 -413
-24 413 596
-597 -24
-597 59
24 -59 597
-598 -596
-598 -597
596 597 598
-599 24
-599 -422
-24 422 599
-600 -24
-600 60
24 -60 600
-601 -599
-601 -600
599 600 601
-602 24
-602 -431
-24 431 602
-603 -24
-603 61
24 -61 603
-604 -602
-604 -603
602 603 604
-605 24
-605 -440
-24 440 605
-606 -24
-606 62
24 -62 606
-607 -605
-607 -606
605 606 607
-608 24
-608 -449
-24 449 608
-609 -24
-609 63
24 -63 609
-610 -608
-610 -609
608 609 610
-611 24
-611 -458
-24 458 611
-612 -24
-612 64
24 -64 612
-613 -611
-613 -612
611 612 613
-614 24
-614 -467
-24 467 614
-615 -24
-615 65
24 -65 615
-616 -614
-616 -615
614 615 616
-617 24
-617 -476
-24 476 617
-618 -24
-618 66
24 -66 618
-619 -617
-619 -618
617 618 619
-620 24
-620 -485
-24 485 620
-621 -24
-621 67
24 -67 621
-622 -620
-622 -621
620 621 622
-623 24
-623 -494
-24 494 623
-624 1
-624 109
-1 -109 624
-625 -109
-625 110
109 -110 625
-626 -624
-626 -625
624 625 626
-627 2
-627 109
-2 -109 627
-628 -109
-628 -499
109 499 628
-629 -627
-629 -628
627 628 629
-630 3
-630 109
-3 -109 630
-631 -109
-631 -502
109 502 631
-632 -630
-632 -631
630 631 632
-633 4
-633 109
-4 -109 633
-634 -109
-634 -505
109 505 634
-635 -633
-635 -634
633 634 635
-636 5
-636 109
-5 -109 636
-637 -109
-637 -508
109 508 637
-638 -636
-638 -637
636 637 638
-639 6
-639 109
-6 -109 639
-640 -109
-640 -511
109 511 640
-641 -639
-641 -640
639 640 641
-642 7
-642 109
-7 -109 642
-643 -109
-643 -514
109 514 643
-644 -642
-644 -643
642 643 644
-645 8
-645 109
-8 -109 645
-646 -109
-646 -517
109 517 646
-647 -645
-647 -646
645 646 647
-648 9
-648 109
-9 -109 648
-649 -109
-649 -520
109 520 649
-650 -648
-650 -649
648 649 650
-651 10
-651 109
-10 -109 651
-652 -109
-652 -523
109 523 652
-653 -651
-653 -652
651 652 653
-654 11
-654 109
-11 -109 654
-655 -109
-655 -526
109 526 655
-656 -654
-656 -655
654 655 656
-657 12
-657 109
-12 -109 657
-658 -109
-658 -529
109 529 658
-659 -657
-659 -658
657 658 659
-660 13
-660 109
-13 -109 660
-661 -109
-661 -532
109 532 661
-662 -660
-662 -661
660 661 662
-663 14
-663 109
-14 -109 663
-664 -109
-664 -535
109 535 664
-665 -663
-665 -664
663 664 665
-666 15
-666 109
-15 -109 666
-667 -109
-667 -538
109 538 667
-668 -666
-668 -667
666 667 668
-669 16
-669 109
-16 -109 669
-670 -109
-670 -541
109 541 670
-671 -669
-671 -670
669 670 671
-672 17
-672 109
-17 -109 672
-673 -109
-673 -544
109 544 673
-674 -672
-674 -673
672 673 674
-675 18
-675 109
-18 -109 675
-676 -109
-676 -547
109 547 676
-677 -675
-677 -676
675 676 677
-678 19
-678 109
-19 -109 678
-679 -109
-679 -550
109 550 679
-680 -678
-680 -679
678 679 680
-681 20
-681 109
-20 -109 681
-682 -109
-682 -553
109 553 682
-683 -681
-683 -682
681 682 683
-684 21
-684 109
-21 -109 684
-685 -109
-685 -556
109 556 685
-686 -684
-686 -685
684 685 686
-687 22
-687 109
-22 -109 687
-688 -109
-688 -559
109 559 688
-689 -687
-689 -688
687 688 689
-690 23
-690 109
-23 -109 690
-691 -109
-691 -562
109 562 691
-692 -690
-692 -691
690 691 692
-693 -109
-693 -565
109 565 693
-694 -109
-694 -568
109 568 694
-695 -109
-695 -571
109 571 695
-696 -109
-696 -574
109 574 696
-697 -109
-697 -577
109 577 697
-698 -109
-698 -580
109 580 698
-699 -109
-699 -583
109 583 699
-700 -109
-700 -586
109 586 700
-701 -109
-701 -589
109 589 701
-702 -109
-702 -592
109 592 702
-703 -109
-703 -595
109 595 703
-704 -109
-704 -598
109 598 704
-705 -109
-705 -601
109 601 705
-706 -109
-706 -604
109 604 706
-707 -109
-707 -607
109 607 707
-708 -109
-708 -610
109 610 708
-709 -109
-709 -613
109 613 709
-710 -109
-710 -616
109 616 710
-711 -109
-711 -619
109 619 711
-712 -109
-712 -622
109 622 712
-713 -109
-713 623
109 -623 713
-714 -67
-714 496
67 -496 714
-715 24
-715 -714
-24 714 715
715
